Results/Experiment 1 Results/Existing Benchmark/RES_20/i-20-75-12.txt
solutions: 1 nodes: 1  modelTime: 164  solveTime: 11  totalTime: 177  modelSize: 7358  readTime: 2 matchingSize: 10
