Results/Experiment 2 Results/Existing Benchmark/i-20-75-12.lp
clingo version 5.4.0
Reading from tempSRTISolver.lp ...
Solving...
Answer: 1
matched(18,2) matched(17,3) matched(10,5) matched(1,7) matched(12,8) matched(15,9) matched(5,10) matched(4,11) matched(8,12) matched(13,14) matched(9,15) matched(6,16) matched(3,17) matched(2,18) matched(20,19) matched(19,20) matched(7,1) matched(11,4) matched(16,6) matched(14,13)
Optimization: 85
OPTIMUM FOUND

Models       : 1
  Optimum    : yes
Optimization : 85
Calls        : 1
Time         : 0.029s (Solving: 0.00s 1st Model: 0.00s Unsat: 0.00s)
CPU Time     : 0.026s
